units {inp_units}
dimension 3
atom_style atomic
pair_style {inp_pair_style}
boundary p p p

region myreg block 0 {inp_length} 0 {inp_length} 0 {inp_length}
create_box 1 myreg
create_atoms 1 random {inp_num_atoms} {inp_pos_seed} myreg

mass 1 {inp_mass}
pair_coeff 1 1 {inp_epsilon} {inp_sigma}

minimize 1.0e-4 1.0e-6 1000 10000
reset_timestep 0

timestep {inp_time_step}
fix mynvt all nvt temp {inp_temp} {inp_temp} $({inp_damp}*dt)
velocity all create {inp_temp} {inp_vel_seed}

run {inp_equil_steps}

dump mydmp all custom {inp_sample_freq} {inp_output_file} id x y z xu yu zu

run {inp_prod_steps}
