units lj
dimension 3
atom_style atomic
pair_style lj/cut 2.5
boundary p p p

region myreg block 0 25.54 0 25.54 0 25.54
create_box 1 myreg
create_atoms 1 random 2500 2727 myreg

mass 1 1.0
pair_coeff 1 1 1.0 1.0

minimize 1.0e-4 1.0e-6 1000 10000
reset_timestep 0

timestep 0.005
fix mynvt all nvt temp 1.2 1.2 $(100*dt)
velocity all create 1.2 5801

run 10000

dump mydmp all custom 200 configs.dat id x y z

run 100000